FeSi                                    
   4.48390000000000     
     0.9921849361804406    0.0000000000000000    0.0000000000000000
     0.0000000000000000    0.9921849361804406    0.0000000000000000
     0.0000000000000000    0.0000000000000000    0.9921849361804406
   Fe   Si
     4     4
Direct
  0.1361560150969083  0.1361560150969083  0.1361560150969083
  0.6361560150969083  0.3638439849030917  0.8638439849030917
  0.8638439849030917  0.6361560150969083  0.3638439849030917
  0.3638439849030917  0.8638439849030917  0.6361560150969083
  0.8407637939781054  0.8407637939781054  0.8407637939781054
  0.3407637939781054  0.6592362060218946  0.1592362060218946
  0.1592362060218946  0.3407637939781054  0.6592362060218946
  0.6592362060218946  0.1592362060218946  0.3407637939781054
 
  0.00000000E+00  0.00000000E+00  0.00000000E+00
  0.00000000E+00  0.00000000E+00  0.00000000E+00
  0.00000000E+00  0.00000000E+00  0.00000000E+00
  0.00000000E+00  0.00000000E+00  0.00000000E+00
  0.00000000E+00  0.00000000E+00  0.00000000E+00
  0.00000000E+00  0.00000000E+00  0.00000000E+00
  0.00000000E+00  0.00000000E+00  0.00000000E+00
  0.00000000E+00  0.00000000E+00  0.00000000E+00
